50
1000
299
295
293
292
282
278
273
271
270
267
263
260
259
256
255
254
245
238
229
228
228
228
228
226
206
205
204
198
196
195
191
163
160
153
151
149
148
145
144
143
137
137
132
132
127
124
120
114
109
105
